p cnf 12 50 
-10 -6 3 0
10 -7 -3 0
11 9 5 0
-7 4 -10 0
6 -11 -12 0
9 -7 -4 0
5 8 11 0
7 1 -8 0
9 -2 -7 0
4 -2 -11 0
-10 11 4 0
4 5 -2 0
-2 -6 -11 0
2 -10 9 0
-9 6 -3 0
3 1 11 0
-12 9 -3 0
-12 -1 -11 0
-8 -1 6 0
-6 -9 -12 0
-1 -11 5 0
-11 -1 4 0
12 -4 7 0
9 -10 -4 0
-6 3 2 0
-6 -11 12 0
2 -10 -1 0
-4 -12 1 0
9 -10 -6 0
-4 7 -11 0
-2 3 -12 0
1 7 11 0
-3 11 -7 0
12 -7 5 0
11 -7 6 0
12 1 -9 0
-6 4 -7 0
4 -2 11 0
-8 3 -10 0
10 -11 6 0
-9 -5 -1 0
-10 -2 -7 0
-9 -12 -10 0
-5 -12 -10 0
8 -4 2 0
-8 6 3 0
-3 10 -6 0
7 3 -12 0
-3 -5 -8 0
2 -7 4 0
